(set-info :smt-lib-version 2.6)
(set-logic UF)
(set-info :source |
Generated by: David Deharbe, CLEARSY
Generated on: 2019-09-09
Generator: bxml;pog;pog2smt (Atelier B)
Application: Event-B
Target solver: CVC4, Z3
|)
(set-info :license "https://creativecommons.org/licenses/by-nc/4.0/")
(set-info :category "industrial")
(set-info :status sat)
; Prelude
(declare-sort U 0)
(declare-fun |*i| (U U) U)
(declare-fun |+i| (U U) U)
(declare-fun |-i| (U U) U)
(declare-fun idiv (U U) U)
(declare-fun |*r| (U U) U)
(declare-fun |+r| (U U) U)
(declare-fun |-r| (U U) U)
(declare-fun rdiv (U U) U)
(declare-fun modulo (U U) U)
(declare-fun |<i| (U U) Bool)
(declare-fun |<=i| (U U) Bool)
(declare-fun |>i| (U U) Bool)
(declare-fun |>=i| (U U) Bool)
(declare-fun |<r| (U U) Bool)
(declare-fun |<=r| (U U) Bool)
(declare-fun |>r| (U U) Bool)
(declare-fun |>=r| (U U) Bool)
(declare-fun iuminus (U) U)
(declare-fun ruminus (U) U)
(declare-fun TRUE () U)
(declare-fun FALSE () U)
(assert (not (= TRUE FALSE)))
(declare-fun empty () U)
(declare-fun bool (Bool) U)
(declare-fun BOOL () U)
(declare-fun INT () U)
(declare-fun INTEGER () U)
(declare-fun NAT () U)
(declare-fun NAT1 () U)
(declare-fun NATURAL () U)
(declare-fun NATURAL1 () U)
(declare-fun FLOAT () U)
(declare-fun MaxInt () U)
(declare-fun MinInt () U)
(declare-fun |STRING| () U)
(declare-fun REAL () U)
(declare-fun set_prod (U U) U)
(declare-fun set_diff (U U) U)
(declare-fun mapplet (U U) U)
(declare-fun |**i| (U U) U)
(declare-fun |**r| (U U) U)
(declare-fun |+->| (U U) U)
(declare-fun |+->>| (U U) U)
(declare-fun |-->| (U U) U)
(declare-fun |-->>| (U U) U)
(declare-fun |<->| (U U) U)
(declare-fun |>+>| (U U) U)
(declare-fun |>->| (U U) U)
(declare-fun |>+>>| (U U) U)
(declare-fun |>->>| (U U) U)
(declare-fun |->| (U U) U)
(declare-fun interval (U U) U)
(declare-fun composition (U U) U)
(declare-fun binary_inter (U U) U)
(declare-fun restriction_head (U U) U)
(declare-fun semicolon (U U) U)
(declare-fun |<+| (U U) U)
(declare-fun |<-| (U U) U)
(declare-fun domain_subtraction (U U) U)
(declare-fun domain_restriction (U U) U)
(declare-fun |><| (U U) U)
(declare-fun parallel_product (U U) U)
(declare-fun binary_union (U U) U)
(declare-fun restriction_tail (U U) U)
(declare-fun concatenate (U U) U)
(declare-fun range_restriction (U U) U)
(declare-fun range_subtraction (U U) U)
(declare-fun image (U U) U)
(declare-fun apply (U U) U)
(declare-fun prj1 (U U) U)
(declare-fun prj2 (U U) U)
(declare-fun iterate (U U) U)
(declare-fun |const| (U U) U)
(declare-fun rank (U U) U)
(declare-fun father (U U) U)
(declare-fun subtree (U U) U)
(declare-fun arity (U U) U)
(declare-fun |+f| (U U) U)
(declare-fun |-f| (U U) U)
(declare-fun |*f| (U U) U)
(declare-fun |fdiv| (U U) U)
(declare-fun tbin (U U U) U)
(declare-fun son (U U U) U)
(declare-fun mem (U U) Bool)
(declare-fun subset (U U) Bool)
(declare-fun strict_subset (U U) Bool)
(declare-fun |<=f| (U U) Bool)
(declare-fun |<f| (U U) Bool)
(declare-fun |>=f| (U U) Bool)
(declare-fun |>f| (U U) Bool)
(declare-fun imax (U) U)
(declare-fun imin (U) U)
(declare-fun rmax (U) U)
(declare-fun rmin (U) U)
(declare-fun card (U) U)
(declare-fun dom (U) U)
(declare-fun ran (U) U)
(declare-fun POW (U) U)
(declare-fun POW1 (U) U)
(declare-fun FIN (U) U)
(declare-fun FIN1 (U) U)
(declare-fun union (U) U)
(declare-fun inter (U) U)
(declare-fun seq (U) U)
(declare-fun seq1 (U) U)
(declare-fun iseq (U) U)
(declare-fun iseq1 (U) U)
(declare-fun inverse (U) U)
(declare-fun size (U) U)
(declare-fun perm (U) U)
(declare-fun first (U) U)
(declare-fun last (U) U)
(declare-fun id (U) U)
(declare-fun closure (U) U)
(declare-fun closure1 (U) U)
(declare-fun tail (U) U)
(declare-fun front (U) U)
(declare-fun reverse (U) U)
(declare-fun rev (U) U)
(declare-fun conc (U) U)
(declare-fun succ (U) U)
(declare-fun pred (U) U)
(declare-fun rel (U) U)
(declare-fun fnc (U) U)
(declare-fun real (U) U)
(declare-fun floor (U) U)
(declare-fun ceiling (U) U)
(declare-fun tree (U) U)
(declare-fun btree (U) U)
(declare-fun top (U) U)
(declare-fun sons (U) U)
(declare-fun prefix (U) U)
(declare-fun postfix (U) U)
(declare-fun sizet (U) U)
(declare-fun mirror (U) U)
(declare-fun left (U) U)
(declare-fun right (U) U)
(declare-fun infix (U) U)
(declare-fun ubin (U) U)
(declare-fun SEQ (U) U)
(declare-fun SET (U) U)
; Opaque formulas
(declare-fun e0 () U)
(declare-fun e75 () U)
(declare-fun e147 () U)
(declare-fun e149 () U)
(declare-fun e152 () U)
(declare-fun e145 () U)
(declare-fun e41 () U)
(declare-fun g_s0_1 () U)
(declare-fun g_s1_2 () U)
(declare-fun g_s10_11 () U)
(declare-fun g_s100_101 () U)
(declare-fun g_s101_102 () U)
(declare-fun g_s102_103 () U)
(declare-fun g_s103_104 () U)
(declare-fun g_s104_105 () U)
(declare-fun g_s105_106 () U)
(declare-fun g_s106_107 () U)
(declare-fun g_s107_108 () U)
(declare-fun g_s108_109 () U)
(declare-fun g_s109_110 () U)
(declare-fun g_s11_12 () U)
(declare-fun g_s110_111 () U)
(declare-fun g_s111_113 () U)
(declare-fun g_s112_112 () U)
(declare-fun g_s113_114 () U)
(declare-fun g_s114_115 () U)
(declare-fun g_s115_116 () U)
(declare-fun g_s116_117 () U)
(declare-fun g_s117_119 () U)
(declare-fun g_s118_118 () U)
(declare-fun g_s119_120 () U)
(declare-fun g_s12_13 () U)
(declare-fun g_s120_121 () U)
(declare-fun g_s121_122 () U)
(declare-fun g_s122_124 () U)
(declare-fun g_s123_123 () U)
(declare-fun g_s124_125 () U)
(declare-fun g_s125_126 () U)
(declare-fun g_s126_127 () U)
(declare-fun g_s127_128 () U)
(declare-fun g_s128_129 () U)
(declare-fun g_s129_130 () U)
(declare-fun g_s13_14 () U)
(declare-fun g_s130_131 () U)
(declare-fun g_s131_133 () U)
(declare-fun g_s132_132 () U)
(declare-fun g_s133_135 () U)
(declare-fun g_s134_134 () U)
(declare-fun g_s135_137 () U)
(declare-fun g_s136_136 () U)
(declare-fun g_s137_138 () U)
(declare-fun g_s138_139 () U)
(declare-fun g_s139_140 () U)
(declare-fun g_s14_15 () U)
(declare-fun g_s140_141 () U)
(declare-fun g_s141_142 () U)
(declare-fun g_s142_143 () U)
(declare-fun g_s143_144 () U)
(declare-fun g_s144_146 () U)
(declare-fun g_s145_148 () U)
(declare-fun g_s146_150 () U)
(declare-fun g_s147_151 () U)
(declare-fun g_s148_153 () U)
(declare-fun g_s149_154 () U)
(declare-fun g_s15_16 () U)
(declare-fun g_s150_155 () U)
(declare-fun g_s151_156 () U)
(declare-fun g_s152_157 () U)
(declare-fun g_s153_158 () U)
(declare-fun g_s154_159 () U)
(declare-fun g_s155_160 () U)
(declare-fun g_s156_161 () U)
(declare-fun g_s157_162 () U)
(declare-fun g_s158_164 () U)
(declare-fun g_s159_163 () U)
(declare-fun g_s16_17 () U)
(declare-fun g_s160_165 () U)
(declare-fun g_s161_166 () U)
(declare-fun g_s162_167 () U)
(declare-fun g_s163_168 () U)
(declare-fun g_s164_169 () U)
(declare-fun g_s165_170 () U)
(declare-fun g_s166_171 () U)
(declare-fun g_s167_172 () U)
(declare-fun g_s168_173 () U)
(declare-fun g_s169_174 () U)
(declare-fun g_s17_18 () U)
(declare-fun g_s170_175 () U)
(declare-fun g_s171_176 () U)
(declare-fun g_s172_177 () U)
(declare-fun g_s173_178 () U)
(declare-fun g_s174_179 () U)
(declare-fun g_s175_180 () U)
(declare-fun g_s176_181 () U)
(declare-fun g_s177_182 () U)
(declare-fun g_s179_183 () U)
(declare-fun g_s18_19 () U)
(declare-fun g_s180$1_184 () U)
(declare-fun g_s19_20 () U)
(declare-fun g_s2_3 () U)
(declare-fun g_s20_21 () U)
(declare-fun g_s21_22 () U)
(declare-fun g_s22_23 () U)
(declare-fun g_s23_24 () U)
(declare-fun g_s24_25 () U)
(declare-fun g_s25_26 () U)
(declare-fun g_s26_27 () U)
(declare-fun g_s27_28 () U)
(declare-fun g_s28_29 () U)
(declare-fun g_s29_30 () U)
(declare-fun g_s3_4 () U)
(declare-fun g_s30_31 () U)
(declare-fun g_s31_32 () U)
(declare-fun g_s32_33 () U)
(declare-fun g_s33_34 () U)
(declare-fun g_s34_35 () U)
(declare-fun g_s35_36 () U)
(declare-fun g_s36_37 () U)
(declare-fun g_s37_38 () U)
(declare-fun g_s38_39 () U)
(declare-fun g_s39_40 () U)
(declare-fun g_s4_5 () U)
(declare-fun g_s40_42 () U)
(declare-fun g_s41_43 () U)
(declare-fun g_s42_44 () U)
(declare-fun g_s43_45 () U)
(declare-fun g_s46_48 () U)
(declare-fun g_s47_47 () U)
(declare-fun g_s48_49 () U)
(declare-fun g_s49_50 () U)
(declare-fun g_s5_6 () U)
(declare-fun g_s50_51 () U)
(declare-fun g_s51_52 () U)
(declare-fun g_s52_53 () U)
(declare-fun g_s53_54 () U)
(declare-fun g_s54_55 () U)
(declare-fun g_s55_56 () U)
(declare-fun g_s56_57 () U)
(declare-fun g_s57_58 () U)
(declare-fun g_s58_59 () U)
(declare-fun g_s59_60 () U)
(declare-fun g_s6_7 () U)
(declare-fun g_s60_62 () U)
(declare-fun g_s61_61 () U)
(declare-fun g_s62_63 () U)
(declare-fun g_s63_64 () U)
(declare-fun g_s64_65 () U)
(declare-fun g_s65_66 () U)
(declare-fun g_s66_67 () U)
(declare-fun g_s67_68 () U)
(declare-fun g_s68_69 () U)
(declare-fun g_s69_70 () U)
(declare-fun g_s7_8 () U)
(declare-fun g_s70_71 () U)
(declare-fun g_s71_72 () U)
(declare-fun g_s72_73 () U)
(declare-fun g_s73_76 () U)
(declare-fun g_s74_74 () U)
(declare-fun g_s75_77 () U)
(declare-fun g_s76_78 () U)
(declare-fun g_s77_79 () U)
(declare-fun g_s78_80 () U)
(declare-fun g_s79_82 () U)
(declare-fun g_s8_9 () U)
(declare-fun g_s80_81 () U)
(declare-fun g_s81_83 () U)
(declare-fun g_s82_84 () U)
(declare-fun g_s83_85 () U)
(declare-fun g_s84_86 () U)
(declare-fun g_s85_87 () U)
(declare-fun g_s86_88 () U)
(declare-fun g_s87_89 () U)
(declare-fun g_s88_90 () U)
(declare-fun g_s89_91 () U)
(declare-fun g_s9_10 () U)
(declare-fun g_s90_92 () U)
(declare-fun g_s91_93 () U)
(declare-fun g_s92_94 () U)
(declare-fun g_s93_95 () U)
(declare-fun g_s94_96 () U)
(declare-fun g_s95_97 () U)
(declare-fun g_s96_98 () U)
(declare-fun g_s97_99 () U)
(declare-fun g_s98_100 () U)
(declare-fun e46 () U)
; Defines
(define-fun |def_B definitions| () Bool (and (= NAT (interval e0 MaxInt)) (= INT (interval MinInt MaxInt))))
(define-fun |def_ctx| () Bool (and (= g_s0_1 (SET (mapplet g_s3_4 (mapplet g_s2_3 g_s1_2)))) (not (= g_s4_5 empty)) (not (= g_s5_6 empty)) (not (= g_s6_7 empty)) (not (= g_s7_8 empty)) (not (= g_s8_9 empty)) (not (= g_s9_10 empty)) (not (= g_s10_11 empty)) (not (= g_s11_12 empty)) (not (= g_s12_13 empty)) (not (= g_s13_14 empty)) (= g_s14_15 (SET (mapplet g_s19_20 (mapplet g_s18_19 (mapplet g_s17_18 (mapplet g_s16_17 g_s15_16)))))) (= g_s20_21 (SET (mapplet g_s23_24 (mapplet g_s22_23 g_s21_22)))) (not (= g_s24_25 empty)) (not (= g_s25_26 empty)) (= g_s26_27 INT) (= g_s27_28 NAT) (= g_s28_29 NAT1) (subset g_s28_29 g_s27_28) (subset g_s27_28 g_s26_27) (= g_s29_30 INT) (= g_s30_31 NAT) (subset g_s30_31 g_s29_30) (mem g_s31_32 g_s26_27) (mem g_s31_32 g_s27_28) (not (mem g_s31_32 g_s28_29)) (mem g_s32_33 g_s26_27) (not (mem g_s32_33 g_s27_28)) (mem g_s33_34 g_s29_30) (mem g_s33_34 g_s30_31) (mem g_s34_35 g_s29_30) (not (mem g_s34_35 g_s30_31)) (= g_s35_36 INT) (= g_s36_37 INT) (= g_s37_38 NATURAL) (= g_s38_39 NATURAL) (mem g_s39_40 NAT) (= g_s39_40 e41) (mem g_s40_42 NAT1) (|<i| g_s40_42 g_s39_40) (mem g_s41_43 NAT) (= g_s41_43 e41) (mem g_s42_44 NAT1) (|<i| g_s42_44 g_s41_43) (subset g_s43_45 (seq INTEGER)) (= g_s43_45 e46) (subset g_s46_48 g_s47_47) (= (SET (mapplet g_s53_54 (mapplet g_s52_53 (mapplet g_s51_52 (mapplet g_s50_51 (mapplet g_s49_50 g_s48_49)))))) g_s46_48) (= g_s54_55 NATURAL) (subset g_s55_56 INTEGER) (subset g_s54_55 g_s55_56) (mem g_s56_57 g_s55_56) (not (mem g_s56_57 g_s54_55)) (subset g_s57_58 g_s6_7) (mem g_s58_59 g_s6_7) (not (mem g_s58_59 g_s57_58)) (mem g_s59_60 g_s57_58) (mem g_s60_62 (|>->>| (interval e0 g_s61_61) g_s6_7)) (= g_s62_63 NATURAL) (= g_s63_64 NATURAL1) (= g_s64_65 e0) (subset g_s65_66 g_s12_13) (mem g_s65_66 (FIN g_s12_13)) (mem g_s66_67 g_s65_66) (mem g_s67_68 g_s12_13) (not (mem g_s67_68 g_s65_66)) (mem g_s68_69 (perm g_s65_66)) (mem g_s69_70 NAT1) (= (card g_s65_66) (|*i| g_s69_70 g_s42_44)) (subset g_s70_71 g_s5_6) (mem g_s71_72 g_s5_6) (not (mem g_s71_72 g_s70_71)) (mem g_s72_73 g_s70_71) (mem g_s73_76 (|>->>| (interval e75 g_s74_74) g_s70_71)) (mem g_s75_77 (|>->>| (interval e0 g_s74_74) g_s5_6)) (subset g_s76_78 g_s4_5) (mem g_s77_79 g_s4_5) (not (mem g_s77_79 g_s76_78)) (mem g_s78_80 g_s76_78) (mem g_s79_82 (|>->>| (interval e0 g_s80_81) g_s4_5)) (= g_s81_83 (interval e0 (|-i| g_s41_43 e75))) (mem g_s82_84 (|-->>| g_s57_58 g_s76_78)) (mem g_s83_85 (|-->| g_s57_58 g_s81_83)) (mem g_s84_86 (|>->>| g_s57_58 (set_prod g_s76_78 g_s81_83))) (= g_s84_86 (|><| g_s82_84 g_s83_85)) (subset g_s85_87 g_s7_8) (mem g_s86_88 g_s85_87) (mem g_s87_89 g_s7_8) (not (mem g_s87_89 g_s85_87)) (subset g_s88_90 g_s13_14) (mem g_s89_91 g_s13_14) (not (mem g_s89_91 g_s88_90)) (mem g_s90_92 g_s88_90) (mem g_s91_93 (perm g_s88_90)) (subset g_s92_94 NAT) (subset g_s93_95 g_s92_94) (mem g_s94_96 g_s92_94) (mem g_s94_96 g_s93_95) (mem g_s95_97 g_s92_94) (not (mem g_s95_97 g_s93_95)) (mem g_s96_98 (|+->| NAT g_s92_94)) (mem g_s96_98 (perm g_s93_95)) (subset g_s97_99 g_s92_94) (subset g_s98_100 g_s93_95) (mem g_s94_96 g_s98_100) (mem g_s94_96 g_s97_99) (forall ((l_s99 U)) (=> (mem l_s99 g_s97_99) (mem (|+i| e75 l_s99) g_s92_94))) (forall ((l_s99 U)) (=> (mem l_s99 g_s98_100) (mem (|+i| e75 l_s99) g_s93_95))) (= g_s98_100 (binary_inter g_s97_99 g_s93_95)) (= g_s100_101 INTEGER) (= g_s101_102 NATURAL) (subset g_s101_102 g_s100_101) (mem g_s102_103 g_s100_101) (not (mem g_s102_103 g_s101_102)) (= g_s103_104 INTEGER) (= g_s104_105 INTEGER) (mem g_s105_106 NAT) (subset g_s106_107 g_s8_9) (mem g_s107_108 g_s8_9) (not (mem g_s107_108 g_s106_107)) (mem g_s108_109 g_s106_107) (mem g_s109_110 (|>->>| (interval e0 g_s105_106) g_s8_9)) (= g_s110_111 e0) (= g_s111_113 (interval e75 g_s112_112)) (= g_s113_114 (interval e0 g_s112_112)) (subset g_s111_113 g_s113_114) (not (= g_s111_113 empty)) (subset g_s114_115 g_s9_10) (mem g_s115_116 g_s9_10) (not (mem g_s115_116 g_s114_115)) (mem g_s116_117 g_s114_115) (mem g_s117_119 (|>->>| (interval e75 g_s118_118) g_s114_115)) (subset g_s119_120 g_s10_11) (mem g_s120_121 g_s10_11) (not (mem g_s120_121 g_s119_120)) (mem g_s121_122 g_s119_120) (mem g_s122_124 (|>->>| (interval e75 g_s123_123) g_s119_120)) (subset g_s124_125 NATURAL) (= g_s124_125 (interval e0 g_s125_126)) (= g_s126_127 (interval e75 g_s125_126)) (subset g_s126_127 g_s124_125) (mem g_s127_128 g_s124_125) (not (mem g_s127_128 g_s126_127)) (mem g_s128_129 g_s126_127) (mem g_s129_130 (|>->>| (interval e75 g_s125_126) g_s126_127)) (mem g_s130_131 g_s11_12) (mem g_s131_133 (|>->>| (interval e75 g_s132_132) g_s11_12)) (= g_s133_135 (interval e0 g_s134_134)) (= g_s135_137 (interval e0 g_s136_136)) (mem g_s137_138 NATURAL1) (= g_s137_138 (|+i| g_s138_139 e75)) (= g_s139_140 (interval e0 g_s137_138)) (mem g_s140_141 NATURAL1) (= g_s140_141 (|+i| g_s141_142 e75)) (= g_s142_143 (interval e0 g_s140_141)) (mem g_s143_144 NATURAL1) (|>=i| g_s143_144 e145) (mem g_s144_146 NATURAL1) (= g_s144_146 e147) (mem g_s145_148 NATURAL1) (= g_s145_148 e149) (|<=i| g_s145_148 g_s146_150) (|<=i| g_s144_146 g_s146_150) (mem g_s147_151 NATURAL1) (= g_s147_151 e152) (mem g_s148_153 NATURAL1) (|>=i| g_s148_153 e147) (mem g_s149_154 NATURAL1) (|>=i| g_s149_154 e147) (mem g_s150_155 NATURAL1) (|>=i| g_s150_155 e149) (mem g_s151_156 NATURAL1) (mem g_s152_157 NATURAL1) (|>=i| g_s152_157 e149) (mem g_s153_158 NATURAL1) (|>=i| g_s153_158 e149) (|<=i| g_s149_154 g_s148_153) (|<=i| g_s152_157 g_s148_153) (|<=i| g_s153_158 g_s148_153) (|<=i| g_s150_155 g_s148_153) (|<=i| g_s151_156 g_s148_153) (subset g_s154_159 g_s24_25) (mem g_s155_160 g_s24_25) (mem g_s155_160 g_s154_159) (mem g_s156_161 g_s24_25) (not (mem g_s156_161 g_s154_159)) (mem g_s157_162 (|+->| NATURAL g_s24_25)) (mem g_s157_162 (perm g_s154_159)) (mem g_s158_164 (|-->| g_s154_159 g_s159_163)) (subset g_s160_165 g_s14_15) (mem g_s161_166 g_s14_15) (mem g_s161_166 g_s160_165) (not (mem g_s15_16 g_s160_165)) (= g_s160_165 (SET (mapplet g_s19_20 (mapplet g_s18_19 (mapplet g_s17_18 g_s16_17))))) (mem g_s162_167 (|+->| NATURAL g_s14_15)) (mem g_s162_167 (perm g_s160_165)) (mem g_s163_168 (|-->| g_s160_165 g_s159_163)) (subset g_s164_169 g_s20_21) (mem g_s165_170 g_s20_21) (mem g_s165_170 g_s164_169) (not (mem g_s21_22 g_s164_169)) (= g_s164_169 (SET (mapplet g_s23_24 g_s22_23))) (mem g_s166_171 (|+->| NATURAL g_s20_21)) (mem g_s166_171 (perm g_s164_169)) (mem g_s167_172 (|-->| g_s164_169 g_s159_163)) (subset g_s168_173 g_s25_26) (mem g_s169_174 g_s25_26) (mem g_s169_174 g_s168_173) (mem g_s170_175 g_s25_26) (not (mem g_s170_175 g_s168_173)) (mem g_s171_176 (|+->| NATURAL g_s25_26)) (mem g_s171_176 (perm g_s168_173)) (mem g_s172_177 (|+->>| g_s154_159 g_s160_165)) (mem g_s173_178 (|+->>| g_s154_159 g_s164_169)) (subset g_s174_179 g_s154_159) (= g_s175_180 NATURAL) (mem g_s176_181 (|-->| g_s175_180 g_s54_55)) (= (binary_inter (dom g_s172_177) (dom g_s173_178)) empty) (= (binary_inter (dom g_s173_178) g_s174_179) empty) (= (binary_union (binary_union (dom g_s172_177) (dom g_s173_178)) g_s174_179) g_s154_159)))
(define-fun |def_seext| () Bool true)
(define-fun |def_lprp| () Bool true)
(define-fun |def_inprp| () Bool true)
(define-fun |def_inext| () Bool true)
(define-fun |def_inv| () Bool  (mem g_s177_182 (|>+>| g_s164_169 g_s70_71)))
(define-fun |def_ass| () Bool true)
(define-fun |def_cst| () Bool true)
(define-fun |def_sets| () Bool true)
; PO group 0 
(assert |def_B definitions|)
(assert |def_ctx|)
(assert |def_cst|)
(assert |def_lprp|)
(assert |def_inprp|)
(assert |def_inext|)
(assert |def_seext|)
(assert |def_inv|)
(assert |def_ass|)
(assert (mem g_s179_183 g_s20_21))
(assert (mem g_s179_183 g_s164_169))
(define-fun lh_1 () Bool (mem g_s179_183 (dom g_s177_182)))
(define-fun lh_2 () Bool (mem g_s180$1_184 g_s5_6))
; PO 1 in group 0
(assert (not (=> (and lh_1 lh_2) (mem g_s177_182 (|+->| (dom g_s177_182) (ran g_s177_182))))))
(check-sat)
(exit)